results_rootrelaxation/bin012_050_019.srr.sol
solution status: optimal solution found
objective value:                 4.71844785465692e-16
_var524_                            0.433444529564878 	(obj:0)
_var708_                            0.109382209633229 	(obj:0)
_var719_                            0.235964879358344 	(obj:0)
_var731_                            0.584738372413915 	(obj:0)
_var751_                            0.183155868268894 	(obj:0)
_var752_                            0.278530002009038 	(obj:0)
_var754_                           0.0595050700624572 	(obj:0)
_var756_                            0.231339675418862 	(obj:0)
_var759_                            0.169666610001479 	(obj:0)
_var760_                            0.533538799831329 	(obj:0)
_var762_                            0.383585051870723 	(obj:0)
_var763_                            0.158429241002929 	(obj:0)
_var766_                           0.0551337555993671 	(obj:0)
_var769_                            0.162774062651092 	(obj:0)
_var770_                           0.0261837320869922 	(obj:0)
_var771_                           0.0982574350981234 	(obj:0)
_var772_                            0.274194011299186 	(obj:0)
_var777_                             0.41431892492157 	(obj:0)
_var779_                            0.537479606051842 	(obj:0)
_var780_                            0.108481453925683 	(obj:0)
_var781_                            0.107598360094756 	(obj:0)
_var783_                            0.142888997313187 	(obj:0)
_var787_                            0.228153914423792 	(obj:0)
_var792_                            0.253178585857694 	(obj:0)
_var793_                           0.0551337555993671 	(obj:0)
_var800_                            0.262819762756842 	(obj:0)
_var802_                            0.425421622110904 	(obj:0)
_var803_                           0.0226270716829335 	(obj:0)
_var805_                          0.00957494486182869 	(obj:0)
_var806_                            0.162208882599298 	(obj:0)
_var807_                           0.0352906372184309 	(obj:0)
_var809_                            0.336076811501414 	(obj:0)
_var814_                            0.150322439635018 	(obj:0)
_var815_                           0.0341845621951949 	(obj:0)
_var816_                          0.000942702664515016 	(obj:0)
_var820_                            0.293699346289792 	(obj:0)
_var821_                              0.0516654045784 	(obj:0)
_var826_                           0.0774208361573933 	(obj:0)
_var827_                            0.274878409018154 	(obj:0)
_var828_                           0.0890423509723964 	(obj:0)
_var829_                           0.0190439184639466 	(obj:0)
_var831_                           0.0317604696292992 	(obj:0)
_var837_                           0.0522681161180086 	(obj:0)
_var839_                            0.182007846288688 	(obj:0)
_var840_                            0.163359112314082 	(obj:0)
_var841_                            0.364457239492839 	(obj:0)
_var842_                           0.0323874662492575 	(obj:0)
_var843_                           0.0454373853357851 	(obj:0)
_var844_                            0.326771210258018 	(obj:0)
_var845_                            0.142888997313187 	(obj:0)
_var846_                            0.112892507611165 	(obj:0)
_var847_                            0.270423200641127 	(obj:0)
_var849_                            0.160213090541402 	(obj:0)
_var853_                           0.0184169218439883 	(obj:0)
_var855_                            0.179069351566278 	(obj:0)
_var856_                            0.319631396634971 	(obj:0)
_var857_                            0.190430353701157 	(obj:0)
_var859_                            0.149196495000584 	(obj:0)
_var860_                            0.137307844301726 	(obj:0)
_var863_                           0.0508043880932458 	(obj:0)
