results_rootrelaxation/bin012_050_019.srr.log
SCIP version 8.0.3.5 [precision: 8 byte] [memory: block] [mode: optimized] [LP solver: Soplex 6.0.1.3] [GitHash: 438792519e]
Copyright (c) 2002-2023 Zuse Institute Berlin (ZIB)

External libraries: 
  Readline 8.1         GNU library for command line editing (gnu.org/s/readline)
  Soplex 6.0.1.3       Linear Programming Solver developed at Zuse Institute Berlin (soplex.zib.de) [GitHash: 713be0fe]
  CppAD 20180000.0     Algorithmic Differentiation of C++ algorithms developed by B. Bell (github.com/coin-or/CppAD)
  ZLIB 1.2.11          General purpose compression library by J. Gailly and M. Adler (zlib.net)
  bliss 0.77           Computing Graph Automorphism Groups by T. Junttila and P. Kaski (www.tcs.hut.fi/Software/bliss/)

user parameter file <scip.set> not found - using default parameters

srr/relaxation = TRUE

read problem <instances/bin012_050_019.srr>
============

Original problem: 
original problem has 0 variables (0 bin, 0 int, 0 impl, 0 cont) and 77 constraints

presolving:
presolving (1 rounds: 1 fast, 1 medium, 1 exhaustive):
 0 deleted vars, 0 deleted constraints, 0 added constraints, 0 tightened bounds, 0 added holes, 0 changed sides, 0 changed coefficients
 0 implications, 0 cliques
presolved problem has 0 variables (0 bin, 0 int, 0 impl, 0 cont) and 77 constraints
     77 constraints of type <linear>
Presolving Time: 0.00

 time | node  | left  |LP iter|LP it/n|mem/heur|mdpt |vars |cons |rows |cuts |sepa|confs|strbr|  dualbound   | primalbound  |  gap   | compl. 
  0.0s|     1 |     0 |     1 |     - |   710k |   0 |   1 |  77 |  77 |   0 |  0 |   0 |   0 |      --      |      --      |    Inf | unknown
r 0.1s|     1 |     0 |  1292 |     - |simplero|   0 | 707 |  77 |  77 |   0 |  0 |   0 |   0 |      --      | 1.512843e+01 |    Inf | unknown
r 0.1s|     1 |     0 |  1343 |     - |simplero|   0 | 718 |  77 |  77 |   0 |  0 |   0 |   0 |      --      | 1.327587e+01 |    Inf | unknown
r 0.1s|     1 |     0 |  1383 |     - |simplero|   0 | 729 |  77 |  77 |   0 |  0 |   0 |   0 |      --      | 1.219512e+01 |    Inf | unknown
r 0.1s|     1 |     0 |  1445 |     - |simplero|   0 | 740 |  77 |  77 |   0 |  0 |   0 |   0 |      --      | 1.013794e+01 |    Inf | unknown
r 0.1s|     1 |     0 |  1481 |     - |simplero|   0 | 751 |  77 |  77 |   0 |  0 |   0 |   0 |      --      | 8.769685e+00 |    Inf | unknown
r 0.1s|     1 |     0 |  1512 |     - |simplero|   0 | 751 |  77 |  77 |   0 |  0 |   0 |   0 |      --      | 8.359024e+00 |    Inf | unknown
r 0.1s|     1 |     0 |  1582 |     - |simplero|   0 | 762 |  77 |  77 |   0 |  0 |   0 |   0 |      --      | 6.615942e+00 |    Inf | unknown
r 0.1s|     1 |     0 |  1596 |     - |simplero|   0 | 762 |  77 |  77 |   0 |  0 |   0 |   0 |      --      | 6.492009e+00 |    Inf | unknown
r 0.1s|     1 |     0 |  1649 |     - |simplero|   0 | 773 |  77 |  77 |   0 |  0 |   0 |   0 |      --      | 5.418263e+00 |    Inf | unknown
r 0.1s|     1 |     0 |  1673 |     - |simplero|   0 | 773 |  77 |  77 |   0 |  0 |   0 |   0 |      --      | 5.364936e+00 |    Inf | unknown
r 0.1s|     1 |     0 |  1729 |     - |simplero|   0 | 784 |  77 |  77 |   0 |  0 |   0 |   0 |      --      | 3.349136e+00 |    Inf | unknown
r 0.1s|     1 |     0 |  1757 |     - |simplero|   0 | 784 |  77 |  77 |   0 |  0 |   0 |   0 |      --      | 2.927184e+00 |    Inf | unknown
r 0.1s|     1 |     0 |  1769 |     - |simplero|   0 | 784 |  77 |  77 |   0 |  0 |   0 |   0 |      --      | 2.889503e+00 |    Inf | unknown
r 0.1s|     1 |     0 |  1770 |     - |simplero|   0 | 784 |  77 |  77 |   0 |  0 |   0 |   0 |      --      | 2.889489e+00 |    Inf | unknown
 time | node  | left  |LP iter|LP it/n|mem/heur|mdpt |vars |cons |rows |cuts |sepa|confs|strbr|  dualbound   | primalbound  |  gap   | compl. 
r 0.1s|     1 |     0 |  1771 |     - |simplero|   0 | 784 |  77 |  77 |   0 |  0 |   0 |   0 |      --      | 2.889452e+00 |    Inf | unknown
r 0.1s|     1 |     0 |  1819 |     - |simplero|   0 | 795 |  77 |  77 |   0 |  0 |   0 |   0 |      --      | 2.147468e+00 |    Inf | unknown
r 0.1s|     1 |     0 |  1829 |     - |simplero|   0 | 795 |  77 |  77 |   0 |  0 |   0 |   0 |      --      | 2.102221e+00 |    Inf | unknown
r 0.1s|     1 |     0 |  1830 |     - |simplero|   0 | 795 |  77 |  77 |   0 |  0 |   0 |   0 |      --      | 2.101146e+00 |    Inf | unknown
r 0.1s|     1 |     0 |  1883 |     - |simplero|   0 | 806 |  77 |  77 |   0 |  0 |   0 |   0 |      --      | 1.691161e+00 |    Inf | unknown
r 0.1s|     1 |     0 |  1890 |     - |simplero|   0 | 806 |  77 |  77 |   0 |  0 |   0 |   0 |      --      | 1.680952e+00 |    Inf | unknown
r 0.1s|     1 |     0 |  1895 |     - |simplero|   0 | 806 |  77 |  77 |   0 |  0 |   0 |   0 |      --      | 1.678225e+00 |    Inf | unknown
r 0.1s|     1 |     0 |  1932 |     - |simplero|   0 | 817 |  77 |  77 |   0 |  0 |   0 |   0 |      --      | 1.353552e+00 |    Inf | unknown
r 0.1s|     1 |     0 |  1949 |     - |simplero|   0 | 817 |  77 |  77 |   0 |  0 |   0 |   0 |      --      | 1.291178e+00 |    Inf | unknown
r 0.1s|     1 |     0 |  1953 |     - |simplero|   0 | 817 |  77 |  77 |   0 |  0 |   0 |   0 |      --      | 1.287522e+00 |    Inf | unknown
r 0.1s|     1 |     0 |  1980 |     - |simplero|   0 | 828 |  77 |  77 |   0 |  0 |   0 |   0 |      --      | 1.043113e+00 |    Inf | unknown
r 0.1s|     1 |     0 |  1993 |     - |simplero|   0 | 828 |  77 |  77 |   0 |  0 |   0 |   0 |      --      | 9.905994e-01 |    Inf | unknown
r 0.1s|     1 |     0 |  1996 |     - |simplero|   0 | 828 |  77 |  77 |   0 |  0 |   0 |   0 |      --      | 9.875333e-01 |    Inf | unknown
r 0.1s|     1 |     0 |  2024 |     - |simplero|   0 | 839 |  77 |  77 |   0 |  0 |   0 |   0 |      --      | 7.184929e-01 |    Inf | unknown
r 0.1s|     1 |     0 |  2049 |     - |simplero|   0 | 850 |  77 |  77 |   0 |  0 |   0 |   0 |      --      | 4.623540e-01 |    Inf | unknown
 time | node  | left  |LP iter|LP it/n|mem/heur|mdpt |vars |cons |rows |cuts |sepa|confs|strbr|  dualbound   | primalbound  |  gap   | compl. 
r 0.1s|     1 |     0 |  2064 |     - |simplero|   0 | 850 |  77 |  77 |   0 |  0 |   0 |   0 |      --      | 3.841798e-01 |    Inf | unknown
  0.1s|     1 |     0 |  2067 |     - |  4089k |   0 | 850 |  77 |  77 |   0 |  0 |   0 |   0 |      --      | 3.841798e-01 |    Inf | unknown
r 0.1s|     1 |     0 |  2067 |     - |simplero|   0 | 850 |  77 |  77 |   0 |  0 |   0 |   0 |      --      | 3.818673e-01 |    Inf | unknown
r 0.1s|     1 |     0 |  2108 |     - |simplero|   0 | 861 |  77 |  77 |   0 |  0 |   0 |   0 |      --      | 3.377753e-02 |    Inf | unknown
r 0.1s|     1 |     0 |  2112 |     - |simplero|   0 | 861 |  77 |  77 |   0 |  0 |   0 |   0 |      --      | 2.674294e-02 |    Inf | unknown
r 0.1s|     1 |     0 |  2115 |     - |simplero|   0 | 872 |  77 |  77 |   0 |  0 |   0 |   0 |      --      | 4.718448e-16 |    Inf | unknown
  0.1s|     1 |     0 |  2115 |     - |  4191k |   0 | 872 |  77 |  77 |   0 |  0 |   0 |   0 |-6.661338e-16 | 4.718448e-16 |   0.00%| unknown
  0.1s|     1 |     0 |  2115 |     - |  4191k |   0 | 872 |  77 |  77 |   0 |  0 |   0 |   0 | 4.718448e-16 | 4.718448e-16 |   0.00%| unknown

SCIP Status        : problem is solved [optimal solution found]
Solving Time (sec) : 0.09
Solving Nodes      : 1
Primal Bound       : +4.71844785465692e-16 (34 solutions)
Dual Bound         : +4.71844785465692e-16
Gap                : 0.00 %

written transformed problem to file <results_rootrelaxation/bin012_050_019.srr.lp>
written transformed problem to file <results_rootrelaxation/bin012_050_019.srr.cip>


SCIP version 8.0.3.5 [precision: 8 byte] [memory: block] [mode: optimized] [LP solver: Soplex 6.0.1.3] [GitHash: 438792519e]
Copyright (c) 2002-2023 Zuse Institute Berlin (ZIB)

External libraries: 
  Readline 8.1         GNU library for command line editing (gnu.org/s/readline)
  Soplex 6.0.1.3       Linear Programming Solver developed at Zuse Institute Berlin (soplex.zib.de) [GitHash: 713be0fe]
  CppAD 20180000.0     Algorithmic Differentiation of C++ algorithms developed by B. Bell (github.com/coin-or/CppAD)
  ZLIB 1.2.11          General purpose compression library by J. Gailly and M. Adler (zlib.net)
  bliss 0.77           Computing Graph Automorphism Groups by T. Junttila and P. Kaski (www.tcs.hut.fi/Software/bliss/)

user parameter file <scip.set> not found - using default parameters

srr/relaxation = TRUE

read problem <instances/bin012_050_019.srr>
============

Original problem: 
original problem has 0 variables (0 bin, 0 int, 0 impl, 0 cont) and 77 constraints

presolving:
presolving (1 rounds: 1 fast, 1 medium, 1 exhaustive):
 0 deleted vars, 0 deleted constraints, 0 added constraints, 0 tightened bounds, 0 added holes, 0 changed sides, 0 changed coefficients
 0 implications, 0 cliques
presolved problem has 0 variables (0 bin, 0 int, 0 impl, 0 cont) and 77 constraints
     77 constraints of type <linear>
Presolving Time: 0.00

 time | node  | left  |LP iter|LP it/n|mem/heur|mdpt |vars |cons |rows |cuts |sepa|confs|strbr|  dualbound   | primalbound  |  gap   | compl. 
  0.0s|     1 |     0 |     1 |     - |   710k |   0 |   1 |  77 |  77 |   0 |  0 |   0 |   0 |      --      |      --      |    Inf | unknown
r 0.1s|     1 |     0 |  1292 |     - |simplero|   0 | 707 |  77 |  77 |   0 |  0 |   0 |   0 |      --      | 1.512843e+01 |    Inf | unknown
r 0.1s|     1 |     0 |  1343 |     - |simplero|   0 | 718 |  77 |  77 |   0 |  0 |   0 |   0 |      --      | 1.327587e+01 |    Inf | unknown
r 0.1s|     1 |     0 |  1383 |     - |simplero|   0 | 729 |  77 |  77 |   0 |  0 |   0 |   0 |      --      | 1.219512e+01 |    Inf | unknown
r 0.1s|     1 |     0 |  1445 |     - |simplero|   0 | 740 |  77 |  77 |   0 |  0 |   0 |   0 |      --      | 1.013794e+01 |    Inf | unknown
r 0.1s|     1 |     0 |  1481 |     - |simplero|   0 | 751 |  77 |  77 |   0 |  0 |   0 |   0 |      --      | 8.769685e+00 |    Inf | unknown
r 0.1s|     1 |     0 |  1512 |     - |simplero|   0 | 751 |  77 |  77 |   0 |  0 |   0 |   0 |      --      | 8.359024e+00 |    Inf | unknown
r 0.1s|     1 |     0 |  1582 |     - |simplero|   0 | 762 |  77 |  77 |   0 |  0 |   0 |   0 |      --      | 6.615942e+00 |    Inf | unknown
r 0.1s|     1 |     0 |  1596 |     - |simplero|   0 | 762 |  77 |  77 |   0 |  0 |   0 |   0 |      --      | 6.492009e+00 |    Inf | unknown
r 0.1s|     1 |     0 |  1649 |     - |simplero|   0 | 773 |  77 |  77 |   0 |  0 |   0 |   0 |      --      | 5.418263e+00 |    Inf | unknown
r 0.1s|     1 |     0 |  1673 |     - |simplero|   0 | 773 |  77 |  77 |   0 |  0 |   0 |   0 |      --      | 5.364936e+00 |    Inf | unknown
r 0.1s|     1 |     0 |  1729 |     - |simplero|   0 | 784 |  77 |  77 |   0 |  0 |   0 |   0 |      --      | 3.349136e+00 |    Inf | unknown
r 0.1s|     1 |     0 |  1757 |     - |simplero|   0 | 784 |  77 |  77 |   0 |  0 |   0 |   0 |      --      | 2.927184e+00 |    Inf | unknown
r 0.1s|     1 |     0 |  1769 |     - |simplero|   0 | 784 |  77 |  77 |   0 |  0 |   0 |   0 |      --      | 2.889503e+00 |    Inf | unknown
r 0.1s|     1 |     0 |  1770 |     - |simplero|   0 | 784 |  77 |  77 |   0 |  0 |   0 |   0 |      --      | 2.889489e+00 |    Inf | unknown
 time | node  | left  |LP iter|LP it/n|mem/heur|mdpt |vars |cons |rows |cuts |sepa|confs|strbr|  dualbound   | primalbound  |  gap   | compl. 
r 0.1s|     1 |     0 |  1771 |     - |simplero|   0 | 784 |  77 |  77 |   0 |  0 |   0 |   0 |      --      | 2.889452e+00 |    Inf | unknown
r 0.1s|     1 |     0 |  1819 |     - |simplero|   0 | 795 |  77 |  77 |   0 |  0 |   0 |   0 |      --      | 2.147468e+00 |    Inf | unknown
r 0.1s|     1 |     0 |  1829 |     - |simplero|   0 | 795 |  77 |  77 |   0 |  0 |   0 |   0 |      --      | 2.102221e+00 |    Inf | unknown
r 0.1s|     1 |     0 |  1830 |     - |simplero|   0 | 795 |  77 |  77 |   0 |  0 |   0 |   0 |      --      | 2.101146e+00 |    Inf | unknown
r 0.1s|     1 |     0 |  1883 |     - |simplero|   0 | 806 |  77 |  77 |   0 |  0 |   0 |   0 |      --      | 1.691161e+00 |    Inf | unknown
r 0.1s|     1 |     0 |  1890 |     - |simplero|   0 | 806 |  77 |  77 |   0 |  0 |   0 |   0 |      --      | 1.680952e+00 |    Inf | unknown
r 0.1s|     1 |     0 |  1895 |     - |simplero|   0 | 806 |  77 |  77 |   0 |  0 |   0 |   0 |      --      | 1.678225e+00 |    Inf | unknown
r 0.1s|     1 |     0 |  1932 |     - |simplero|   0 | 817 |  77 |  77 |   0 |  0 |   0 |   0 |      --      | 1.353552e+00 |    Inf | unknown
r 0.1s|     1 |     0 |  1949 |     - |simplero|   0 | 817 |  77 |  77 |   0 |  0 |   0 |   0 |      --      | 1.291178e+00 |    Inf | unknown
r 0.1s|     1 |     0 |  1953 |     - |simplero|   0 | 817 |  77 |  77 |   0 |  0 |   0 |   0 |      --      | 1.287522e+00 |    Inf | unknown
r 0.1s|     1 |     0 |  1980 |     - |simplero|   0 | 828 |  77 |  77 |   0 |  0 |   0 |   0 |      --      | 1.043113e+00 |    Inf | unknown
r 0.1s|     1 |     0 |  1993 |     - |simplero|   0 | 828 |  77 |  77 |   0 |  0 |   0 |   0 |      --      | 9.905994e-01 |    Inf | unknown
r 0.1s|     1 |     0 |  1996 |     - |simplero|   0 | 828 |  77 |  77 |   0 |  0 |   0 |   0 |      --      | 9.875333e-01 |    Inf | unknown
r 0.1s|     1 |     0 |  2024 |     - |simplero|   0 | 839 |  77 |  77 |   0 |  0 |   0 |   0 |      --      | 7.184929e-01 |    Inf | unknown
r 0.1s|     1 |     0 |  2049 |     - |simplero|   0 | 850 |  77 |  77 |   0 |  0 |   0 |   0 |      --      | 4.623540e-01 |    Inf | unknown
 time | node  | left  |LP iter|LP it/n|mem/heur|mdpt |vars |cons |rows |cuts |sepa|confs|strbr|  dualbound   | primalbound  |  gap   | compl. 
r 0.1s|     1 |     0 |  2064 |     - |simplero|   0 | 850 |  77 |  77 |   0 |  0 |   0 |   0 |      --      | 3.841798e-01 |    Inf | unknown
  0.1s|     1 |     0 |  2067 |     - |  4089k |   0 | 850 |  77 |  77 |   0 |  0 |   0 |   0 |      --      | 3.841798e-01 |    Inf | unknown
r 0.1s|     1 |     0 |  2067 |     - |simplero|   0 | 850 |  77 |  77 |   0 |  0 |   0 |   0 |      --      | 3.818673e-01 |    Inf | unknown
r 0.1s|     1 |     0 |  2108 |     - |simplero|   0 | 861 |  77 |  77 |   0 |  0 |   0 |   0 |      --      | 3.377753e-02 |    Inf | unknown
r 0.1s|     1 |     0 |  2112 |     - |simplero|   0 | 861 |  77 |  77 |   0 |  0 |   0 |   0 |      --      | 2.674294e-02 |    Inf | unknown
r 0.1s|     1 |     0 |  2115 |     - |simplero|   0 | 872 |  77 |  77 |   0 |  0 |   0 |   0 |      --      | 4.718448e-16 |    Inf | unknown
  0.1s|     1 |     0 |  2115 |     - |  4191k |   0 | 872 |  77 |  77 |   0 |  0 |   0 |   0 |-6.661338e-16 | 4.718448e-16 |   0.00%| unknown
  0.1s|     1 |     0 |  2115 |     - |  4191k |   0 | 872 |  77 |  77 |   0 |  0 |   0 |   0 | 4.718448e-16 | 4.718448e-16 |   0.00%| unknown

SCIP Status        : problem is solved [optimal solution found]
Solving Time (sec) : 0.10
Solving Nodes      : 1
Primal Bound       : +4.71844785465692e-16 (34 solutions)
Dual Bound         : +4.71844785465692e-16
Gap                : 0.00 %

written transformed problem to file <results_rootrelaxation/bin012_050_019.srr.lp>
written transformed problem to file <results_rootrelaxation/bin012_050_019.srr.cip>

written solution information to file <results_rootrelaxation/bin012_050_019.srr.sol>



